
n_res = 4;
rcap = [47, 41, 74, 78];
rtype = [1, 1, 2, 2];
n_tasks = 50;
modes =  [{1, 2, 3}, {4, 5, 6}, {7, 8, 9}, {10, 11, 12}, {13, 14, 15}, {16, 17, 18}, {19, 20, 21}, {22, 23, 24}, {25, 26, 27}, {28, 29, 30}, {31, 32, 33}, {34, 35, 36}, {37, 38, 39}, {40, 41, 42}, {43, 44, 45}, {46, 47, 48}, {49, 50, 51}, {52, 53, 54}, {55, 56, 57}, {58, 59, 60}, {61, 62, 63}, {64, 65, 66}, {67, 68, 69}, {70, 71, 72}, {73, 74, 75}, {76, 77, 78}, {79, 80, 81}, {82, 83, 84}, {85, 86, 87}, {88, 89, 90}, {91, 92, 93}, {94, 95, 96}, {97, 98, 99}, {100, 101, 102}, {103, 104, 105}, {106, 107, 108}, {109, 110, 111}, {112, 113, 114}, {115, 116, 117}, {118, 119, 120}, {121, 122, 123}, {124, 125, 126}, {127, 128, 129}, {130, 131, 132}, {133, 134, 135}, {136, 137, 138}, {139, 140, 141}, {142, 143, 144}, {145, 146, 147}, {148, 149, 150}];
succ =  [{30, 20, 16, 15, 9, 5}, {20, 17, 14, 9, 7}, {23, 22, 15, 7}, {26, 23, 15, 7}, {34, 29, 28, 27, 26, 24, 23, 22, 21, 18}, {38, 34, 29, 28, 27, 26, 25, 24, 23, 18}, {34, 29, 25, 24, 21, 16}, {32, 30, 29, 28, 27, 25, 23, 22, 18}, {34, 33, 32, 29, 27, 26, 25, 22, 18}, {25, 23, 21, 17}, {50, 35, 34, 33, 31, 29, 24, 22, 21}, {34, 30, 28, 24, 21, 18}, {29, 28, 27, 25, 23, 21}, {35, 34, 31, 28, 23, 21}, {49, 39, 38, 35, 34, 32, 28, 27, 25}, {38, 33, 32, 28, 27, 18}, {40, 38, 35, 33, 29, 27}, {50, 49, 48, 44, 40, 39, 35, 31}, {50, 49, 48, 44, 38, 37, 31, 29}, {50, 48, 37, 36, 33, 32, 29}, {49, 48, 40, 39, 38, 37, 32}, {49, 48, 47, 46, 45, 44, 39, 36}, {50, 48, 47, 39, 36, 33}, {48, 45, 42, 41, 32}, {48, 44, 40, 31}, {46, 44, 43, 41, 39}, {50, 46, 44, 37}, {46, 45, 43, 42, 41}, {46, 45, 41, 39}, {48, 44, 41, 39}, {45, 36}, {47, 46, 44, 43}, {49, 44, 42, 41}, {45, 44, 43, 42}, {46, 37}, {43, 42, 41}, {47, 41}, {45, 43}, {42}, {41}, {}, {}, {}, {}, {}, {}, {}, {}, {}, {}];
n_opt = 150;
dur = [4, 5, 8, 4, 9, 10, 3, 4, 7, 2, 4, 5, 3, 3, 10, 3, 9, 10, 5, 6, 7, 4, 6, 7, 5, 5, 7, 7, 9, 10, 2, 7, 9, 3, 4, 8, 1, 8, 9, 3, 5, 6, 3, 5, 10, 1, 2, 5, 3, 5, 9, 2, 5, 6, 1, 2, 3, 4, 5, 6, 3, 5, 6, 1, 3, 9, 2, 9, 10, 1, 7, 7, 2, 5, 9, 1, 2, 3, 2, 7, 10, 4, 7, 10, 2, 9, 9, 5, 6, 8, 4, 6, 8, 1, 8, 8, 5, 6, 9, 4, 8, 8, 5, 7, 8, 5, 6, 7, 4, 5, 8, 1, 7, 8, 5, 7, 7, 5, 6, 10, 5, 5, 6, 7, 9, 10, 1, 1, 2, 1, 8, 9, 1, 3, 6, 2, 6, 9, 8, 9, 10, 5, 6, 8, 1, 7, 8, 4, 6, 9];
rreq = [|3, 2, 2, 6, 5, 5, 9, 6, 4, 10, 10, 10, 6, 4, 4, 7, 7, 7, 4, 3, 3, 8, 7, 6, 7, 4, 3, 10, 9, 9, 9, 8, 8, 5, 5, 4, 9, 8, 7, 4, 3, 3, 5, 5, 5, 7, 7, 5, 7, 4, 4, 7, 5, 4, 9, 9, 9, 9, 9, 8, 4, 3, 2, 6, 6, 6, 5, 4, 4, 7, 3, 2, 8, 6, 3, 8, 7, 3, 1, 1, 1, 2, 1, 1, 6, 5, 1, 4, 4, 2, 10, 8, 8, 6, 4, 3, 8, 8, 6, 9, 6, 5, 7, 3, 2, 1, 1, 1, 6, 5, 5, 3, 3, 2, 4, 3, 3, 9, 6, 4, 7, 7, 7, 7, 7, 6, 9, 6, 4, 5, 4, 3, 6, 5, 5, 3, 3, 3, 7, 4, 2, 7, 7, 6, 10, 6, 5, 8, 7, 6
 |4, 4, 3, 8, 8, 8, 2, 1, 1, 3, 2, 1, 10, 10, 10, 5, 3, 2, 5, 4, 3, 10, 9, 8, 9, 8, 7, 3, 3, 2, 6, 3, 2, 10, 8, 7, 9, 7, 4, 3, 2, 1, 3, 3, 2, 5, 4, 4, 4, 3, 3, 4, 3, 3, 6, 5, 5, 6, 3, 3, 5, 3, 3, 7, 5, 4, 6, 4, 3, 8, 8, 7, 8, 6, 4, 5, 4, 4, 10, 5, 4, 5, 3, 3, 8, 8, 8, 10, 10, 10, 5, 5, 4, 9, 8, 7, 4, 3, 3, 7, 7, 6, 10, 7, 2, 6, 5, 5, 7, 6, 5, 5, 3, 3, 9, 6, 6, 1, 1, 1, 2, 1, 1, 3, 3, 3, 9, 9, 7, 5, 3, 3, 10, 9, 9, 3, 2, 1, 1, 1, 1, 7, 5, 3, 8, 6, 5, 10, 10, 10
 |0, 0, 1, 8, 0, 6, 0, 3, 0, 0, 0, 0, 3, 0, 1, 6, 4, 2, 3, 2, 1, 8, 0, 0, 0, 6, 0, 8, 3, 3, 10, 0, 0, 0, 2, 1, 10, 0, 10, 5, 0, 0, 0, 0, 3, 10, 5, 3, 10, 8, 0, 8, 0, 0, 0, 0, 3, 0, 2, 0, 0, 4, 0, 8, 0, 5, 0, 0, 0, 0, 3, 0, 7, 0, 0, 6, 5, 0, 6, 6, 0, 8, 0, 2, 6, 0, 2, 0, 8, 0, 6, 0, 3, 0, 3, 0, 10, 0, 0, 10, 8, 0, 0, 5, 2, 0, 0, 0, 0, 0, 1, 6, 5, 4, 4, 0, 3, 0, 0, 0, 3, 0, 0, 6, 4, 2, 0, 2, 2, 0, 0, 0, 0, 0, 0, 6, 0, 0, 0, 0, 7, 0, 0, 1, 7, 5, 4, 0, 0, 0
 |7, 7, 0, 0, 4, 0, 9, 0, 5, 4, 3, 3, 0, 8, 0, 0, 0, 0, 0, 0, 0, 0, 2, 1, 9, 0, 5, 0, 0, 0, 0, 3, 3, 7, 0, 0, 0, 2, 0, 0, 5, 4, 2, 1, 0, 0, 0, 0, 0, 0, 2, 0, 6, 2, 7, 6, 0, 7, 0, 5, 4, 0, 1, 0, 7, 0, 9, 5, 5, 8, 0, 7, 0, 3, 2, 0, 0, 2, 0, 0, 3, 0, 7, 0, 0, 8, 0, 6, 0, 5, 0, 6, 0, 1, 0, 1, 0, 5, 4, 0, 0, 1, 9, 0, 0, 6, 3, 1, 9, 6, 0, 0, 0, 0, 0, 6, 0, 9, 4, 3, 0, 4, 2, 0, 0, 0, 5, 0, 0, 9, 7, 7, 3, 2, 1, 0, 3, 3, 1, 1, 0, 6, 6, 0, 0, 0, 0, 9, 8, 7|];